Instance name : bar-n100-1
Authors       : Pix
Date          : 2025
Reference     : Simplified Hybrid ACO + Pure Greedy
Solution
Route 1 : 31 14 81 17 67 2 10 21 60 52 71 64 49 1 27 26 76 77 99 6 56 51
Route 2 : 30 80 7 57 9 59 5 55 37 87 32 23 82 16 36 66 50 100 86 73
Route 3 : 13 39 63 35 89 85 47 22 3 97 72 38 28 88 78 53
Route 4 : 34 84 24 15 44 94 74 65 43 12 18 62 68 93
Route 5 : 33 48 98 41 29 40 83 91 79 11 61 25 46 96 90 75
Route 6 : 42 20 92 45 70 4 54 95 8 58
Route 7 : 19 69
